# Solution for model OBJROW
# Objective value = 29
C 29
x(0,0) 0
x(0,3) 10
x(0,2) 11
x(0,1) 17
x(1,0) 0
x(1,3) 1
x(1,1) 8
x(1,2) 13
x(2,2) 9
x(2,3) 0
x(2,1) 12
x(2,0) 19
x(3,1) 0
x(3,3) 7
x(3,0) 10
x(3,2) 19
y(0,1,0) 0.875
y(1,0,0) 0.125
y(0,1,1) 8.1395348837209303e-01
y(1,0,1) 1.8604651162790697e-01
y(0,1,2) 9.4594594594594594e-01
y(1,0,2) 5.4054054054053946e-02
y(0,1,3) 0.875
y(1,0,3) 0.125
y(0,2,0) 8.9156626506024095e-01
y(2,0,0) 1.0843373493975894e-01
y(0,2,1) 8.5365853658536583e-01
y(2,0,1) 1.4634146341463417e-01
y(0,2,2) 8.9743589743589747e-01
y(2,0,2) 1.0256410256410264e-01
y(0,2,3) 8.6419753086419748e-01
y(2,0,3) 1.3580246913580252e-01
y(0,3,0) 1
y(3,0,0) 0
y(0,3,1) 7.4468085106382975e-01
y(3,0,1) 2.5531914893617025e-01
y(0,3,2) 1
y(3,0,2) 0
y(0,3,3) 9.4594594594594594e-01
y(3,0,3) 5.4054054054053946e-02
y(1,2,0) 1
y(2,1,0) 0
y(1,2,1) 9.8648648648648651e-01
y(2,1,1) 1.3513513513513487e-02
y(1,2,2) 8.5882352941176465e-01
y(2,1,2) 1.4117647058823535e-01
y(1,2,3) 9.0123456790123457e-01
y(2,1,3) 9.8765432098765427e-02
y(1,3,0) 1
y(3,1,0) 0
y(1,3,1) 8.4883720930232553e-01
y(3,1,1) 1.5116279069767447e-01
y(1,3,2) 9.7333333333333338e-01
y(3,1,2) 2.6666666666666616e-02
y(1,3,3) 9.8648648648648651e-01
y(3,1,3) 1.3513513513513487e-02
y(2,3,0) 8.8095238095238093e-01
y(3,2,0) 1.1904761904761907e-01
y(2,3,1) 7.9569892473118276e-01
y(3,2,1) 2.0430107526881713e-01
y(2,3,2) 1
y(3,2,2) 0
y(2,3,3) 9.7368421052631582e-01
y(3,2,3) 2.6315789473684292e-02
v(0,1,0)p 0
v(0,1,0)n 1
v(1,0,0)p 0
v(1,0,0)n 10
u(0,1,0)p 940
u(0,1,0)n 931.375
u(1,0,0)p 940
u(1,0,0)n 940
v(0,1,1)p 4
v(0,1,1)n 0
v(1,0,1)p 0
v(1,0,1)n 16
u(0,1,1)p 0
u(0,1,1)n 0
u(1,0,1)p 940
u(1,0,1)n 940
v(0,1,2)p 0
v(0,1,2)n 10
v(1,0,2)p 0
v(1,0,2)n 4
u(0,1,2)p 940
u(0,1,2)n 9.3675675675675677e+02
u(1,0,2)p 0
u(1,0,2)n 0
v(0,1,3)p 2
v(0,1,3)n 0
v(1,0,3)p 0
v(1,0,3)n 10
u(0,1,3)p 0
u(0,1,3)n 0
u(1,0,3)p 940
u(1,0,3)n 940
v(0,2,0)p 0
v(0,2,0)n 20
v(2,0,0)p 9
v(2,0,0)n 0
u(0,2,0)p 0
u(0,2,0)n 0
u(2,0,0)p 0
u(2,0,0)n 0
v(0,2,1)p 0
v(0,2,1)n 2
v(2,0,1)p 0
v(2,0,1)n 12
u(0,2,1)p 0
u(0,2,1)n 0
u(2,0,1)p 0
u(2,0,1)n 0
v(0,2,2)p 0
v(0,2,2)n 1
v(2,0,2)p 0
v(2,0,2)n 8
u(0,2,2)p 0
u(0,2,2)n 0
u(2,0,2)p 940
u(2,0,2)n 940
v(0,2,3)p 71
v(0,2,3)n 70
v(2,0,3)p 0
v(2,0,3)n 11
u(0,2,3)p 940
u(0,2,3)n 9.3035802469135797e+02
u(2,0,3)p 940
u(2,0,3)n 940
v(0,3,0)p 0
v(0,3,0)n 19
v(3,0,0)p 0
v(3,0,0)n 0
u(0,3,0)p 0
u(0,3,0)n 0
u(3,0,0)p 0
u(3,0,0)n 0
v(0,3,1)p 10
v(0,3,1)n 0
v(3,0,1)p 0
v(3,0,1)n 24
u(0,3,1)p 0
u(0,3,1)n 0
u(3,0,1)p 940
u(3,0,1)n 940
v(0,3,2)p 0
v(0,3,2)n 18
v(3,0,2)p 67
v(3,0,2)n 65
u(0,3,2)p 0
u(0,3,2)n 0
u(3,0,2)p 940
u(3,0,2)n 938
v(0,3,3)p 0
v(0,3,3)n 0
v(3,0,3)p 0
v(3,0,3)n 4
u(0,3,3)p 0
u(0,3,3)n 0
u(3,0,3)p 0
u(3,0,3)n 0
v(1,2,0)p 0
v(1,2,0)n 20
v(2,1,0)p 18
v(2,1,0)n 0
u(1,2,0)p 0
u(1,2,0)n 0
u(2,1,0)p 940
u(2,1,0)n 922
v(1,2,1)p 0
v(1,2,1)n 11
v(2,1,1)p 0
v(2,1,1)n 1
u(1,2,1)p 0
u(1,2,1)n 0
u(2,1,1)p 0
u(2,1,1)n 0
v(1,2,2)p 74
v(1,2,2)n 73
v(2,1,2)p 0
v(2,1,2)n 12
u(1,2,2)p 0
u(1,2,2)n 0
u(2,1,2)p 940
u(2,1,2)n 940
v(1,2,3)p 0
v(1,2,3)n 8
v(2,1,3)p 0
v(2,1,3)n 8
u(1,2,3)p 0
u(1,2,3)n 0
u(2,1,3)p 940
u(2,1,3)n 940
v(1,3,0)p 0
v(1,3,0)n 19
v(3,1,0)p 9
v(3,1,0)n 0
u(1,3,0)p 940
u(1,3,0)n 940
u(3,1,0)p 940
u(3,1,0)n 931
v(1,3,1)p 1
v(1,3,1)n 0
v(3,1,1)p 0
v(3,1,1)n 13
u(1,3,1)p 940
u(1,3,1)n 9.2881395348837214e+02
u(3,1,1)p 940
u(3,1,1)n 940
v(1,3,2)p 0
v(1,3,2)n 16
v(3,1,2)p 0
v(3,1,2)n 2
u(1,3,2)p 940
u(1,3,2)n 938.48
u(3,1,2)p 0
u(3,1,2)n 0
v(1,3,3)p 0
v(1,3,3)n 9
v(3,1,3)p 0
v(3,1,3)n 1
u(1,3,3)p 0
u(1,3,3)n 0
u(3,1,3)p 0
u(3,1,3)n 0
v(2,3,0)p 0
v(2,3,0)n 0
v(3,2,0)p 0
v(3,2,0)n 10
u(2,3,0)p 0
u(2,3,0)n 0
u(3,2,0)p 940
u(3,2,0)n 940
v(2,3,1)p 5
v(2,3,1)n 0
v(3,2,1)p 0
v(3,2,1)n 19
u(2,3,1)p 940
u(2,3,1)n 9.2386021505376345e+02
u(3,2,1)p 0
u(3,2,1)n 0
v(2,3,2)p 0
v(2,3,2)n 20
v(3,2,2)p 72
v(3,2,2)n 65
u(2,3,2)p 0
u(2,3,2)n 0
u(3,2,2)p 7
u(3,2,2)n 0
v(2,3,3)p 0
v(2,3,3)n 10
v(3,2,3)p 0
v(3,2,3)n 2
u(2,3,3)p 940
u(2,3,3)n 9.3831578947368416e+02
u(3,2,3)p 940
u(3,2,3)n 940
